100
27634

865 867
395 396
777 777
912 912
431 432
42 42
266 267
989 990
524 525
498 498
415 417
941 942
803 804
850 852
311 312
992 993
489 489
367 369
598 600
914 915
930 930
224 225
517 519
143 144
289 291
144 144
774 774
98 99
634 636
819 819
257 258
932 933
546 546
723 723
830 831
617 618
924 924
151 153
318 318
102 102
748 750
76 78
921 921
871 873
701 702
339 339
484 486
574 576
104 105
363 363
445 447
324 324
626 627
656 657
935 936
210 210
990 990
566 567
489 489
454 456
887 888
534 534
267 267
64 66
825 825
941 942
562 564
938 939
15 15
96 96
737 738
861 861
409 411
728 729
845 846
804 804
685 687
641 642
2 3
627 627
506 507
848 849
889 891
342 342
250 252
748 750
334 336
721 723
892 894
65 66
196 198
940 942
582 582
228 228
245 246
823 825
991 993
146 147
823 825
557 558
